;; Original file: term_259.smt2
(set-logic HORN)
(declare-fun starexecinv1 (Real Real Real Real Real Real) Bool)

(assert (forall ((|gh0prime| Real)
         (|XXX0prime| Real)
         (|XXX1prime| Real)
         (|XXX2prime| Real)
         (|XXX3prime| Real)
         (|gh1prime| Real))
  (let ((a!1 (> |gh0prime| (* (+ 0 (- 1)) |XXX0prime|)))
        (a!2 (> |gh0prime| (* (+ 0 (- 1)) |XXX1prime|)))
        (a!3 (> |gh0prime| (* (+ 0 (- 1)) |XXX2prime|)))
        (a!4 (> |gh0prime| (* (+ 0 (- 1)) |XXX3prime|)))
        (a!5 (> |gh1prime| (* (+ 0 (- 1)) |XXX0prime|)))
        (a!6 (> |gh1prime| (* (+ 0 (- 1)) |XXX1prime|)))
        (a!7 (> |gh1prime| (* (+ 0 (- 1)) |XXX2prime|)))
        (a!8 (> |gh1prime| (* (+ 0 (- 1)) |XXX3prime|)))
        (a!9 (+ (* (+ 0 (- 1)) |XXX1prime|) (* (+ 0 1) |XXX2prime|)))
        (a!10 (+ (* (+ 0 (- 1)) |XXX0prime|) (* (+ 0 1) |XXX3prime|)))
        (a!11 (+ (* (+ 0 (- 1)) |XXX0prime|)
                 (* (+ 0 1) |XXX1prime|)
                 (* (+ 0 (- 1)) |XXX2prime|)))
        (a!12 (+ (* (+ 0 1) |XXX0prime|)
                 (* (+ 0 (- 1)) |XXX1prime|)
                 (* (+ 0 1) |XXX3prime|)))
        (a!13 (+ (* (+ 0 (- 1)) |XXX0prime|)
                 (* (+ 0 1) |XXX1prime|)
                 (* (+ 0 (- 1)) |XXX2prime|)
                 (* (+ 0 1) |XXX3prime|)))
        (a!14 (+ (* (+ 0 1) |XXX0prime|)
                 (* (+ 0 (- 1)) |XXX1prime|)
                 (* (+ 0 1) |XXX2prime|)
                 (* (+ 0 1) |XXX3prime|)))
        (a!15 (+ (* (+ 0 1) |XXX0prime|)
                 (* (+ 0 (- 1)) |XXX1prime|)
                 (* (+ 0 (- 1)) |XXX2prime|)
                 (* (+ 0 (- 1)) |XXX3prime|)))
        (a!16 (+ (* (+ 0 (- 1)) |XXX1prime|)
                 (* (+ 0 1) |XXX2prime|)
                 (* (+ 0 (- 1)) |XXX3prime|)))
        (a!17 (+ (* (+ 0 (- 1)) |XXX0prime|)
                 (* (+ 0 1) |XXX2prime|)
                 (* (+ 0 (- 1)) |XXX3prime|)))
        (a!18 (+ (* (+ 0 1) |XXX1prime|)
                 (* (+ 0 (- 1)) |XXX2prime|)
                 (* (+ 0 (- 1)) |XXX3prime|)))
        (a!19 (+ (* (+ 0 (- 1)) |XXX0prime|)
                 (* (+ 0 (- 1)) |XXX1prime|)
                 (* (+ 0 1) |XXX2prime|)
                 (+ 0 1)))
        (a!20 (+ (* (+ 0 (- 1)) |XXX0prime|)
                 (* (+ 0 1) |XXX1prime|)
                 (* (+ 0 1) |XXX2prime|)
                 (* (+ 0 (- 1)) |XXX3prime|)
                 (+ 0 1)))
        (a!21 (+ (* (+ 0 (- 1)) |XXX0prime|)
                 (* (+ 0 (- 1)) |XXX1prime|)
                 (* (+ 0 (- 1)) |XXX2prime|)
                 (* (+ 0 (- 1)) |XXX3prime|)
                 (+ 0 1)))
        (a!22 (+ (* (+ 0 (- 1)) |XXX0prime|)
                 (* (+ 0 (- 1)) |XXX1prime|)
                 (* (+ 0 (- 1)) |XXX3prime|)
                 (+ 0 1)))
        (a!23 (+ (* (+ 0 1) |XXX0prime|)
                 (* (+ 0 (- 1)) |XXX1prime|)
                 (* (+ 0 1) |XXX2prime|)
                 (* (+ 0 (- 1)) |XXX3prime|)
                 (+ 0 1)))
        (a!24 (+ (* (+ 0 1) |XXX0prime|)
                 (* (+ 0 1) |XXX1prime|)
                 (* (+ 0 (- 1)) |XXX2prime|)
                 (* (+ 0 1) |XXX3prime|)
                 (+ 0 1)))
        (a!25 (+ (* (+ 0 1) |XXX0prime|)
                 (* (+ 0 1) |XXX1prime|)
                 (* (+ 0 (- 1)) |XXX2prime|)
                 (* (+ 0 (- 1)) |XXX3prime|)
                 (+ 0 1)))
        (a!26 (> |gh0prime|
                 (+ (* (+ 0 1) |XXX0prime|)
                    (* (+ 0 1) |XXX1prime|)
                    (* (+ 0 1) |XXX2prime|)
                    (* (+ 0 1) |XXX3prime|)
                    (+ 0 1))))
        (a!27 (+ (* (+ 0 (- 1)) |XXX0prime|)
                 (* (+ 0 (- 1)) |XXX1prime|)
                 (* (+ 0 1) |XXX2prime|)
                 (* (+ 0 1) |XXX3prime|)
                 (+ 0 1)))
        (a!28 (+ (* (+ 0 1) |XXX0prime|)
                 (* (+ 0 1) |XXX1prime|)
                 (* (+ 0 1) |XXX2prime|)
                 (* (+ 0 (- 1)) |XXX3prime|)
                 (+ 0 1)))
        (a!29 (+ (* (+ 0 (- 1)) |XXX0prime|)
                 (* (+ 0 1) |XXX1prime|)
                 (* (+ 0 1) |XXX2prime|)
                 (* (+ 0 1) |XXX3prime|)
                 (+ 0 1)))
        (a!30 (+ (* (+ 0 (- 1)) |XXX0prime|)
                 (* (+ 0 (- 1)) |XXX1prime|)
                 (* (+ 0 (- 1)) |XXX2prime|)
                 (* (+ 0 1) |XXX3prime|)
                 (+ 0 1))))
    (=> (and true
             (> |gh0prime| |XXX0prime|)
             (> |gh0prime| |XXX1prime|)
             (> |gh0prime| |XXX2prime|)
             (> |gh0prime| |XXX3prime|)
             a!1
             a!2
             a!3
             a!4
             (> |gh1prime| |XXX0prime|)
             (> |gh1prime| |XXX1prime|)
             (> |gh1prime| |XXX2prime|)
             (> |gh1prime| |XXX3prime|)
             a!5
             a!6
             a!7
             a!8
             (> |gh1prime| (+ 0 1))
             (> |gh1prime| a!9)
             (> |gh1prime| a!10)
             (> |gh0prime| (+ 0 1))
             (> |gh0prime| a!9)
             (> |gh0prime| a!10)
             (> |gh0prime| a!11)
             (> |gh0prime| a!12)
             (> |gh0prime| a!13)
             (> |gh0prime| a!14)
             (> |gh0prime| a!15)
             (> |gh0prime| a!16)
             (> |gh0prime| a!17)
             (> |gh0prime| a!18)
             (> |gh0prime| a!19)
             (> |gh0prime| a!20)
             (> |gh0prime| a!21)
             (> |gh0prime| a!22)
             (> |gh0prime| a!23)
             (> |gh0prime| a!24)
             (> |gh0prime| a!25)
             a!26
             (> |gh0prime| a!27)
             (> |gh0prime| a!28)
             (> |gh0prime| a!29)
             (> |gh0prime| a!30))
        (starexecinv1 |XXX0prime|
                         |XXX1prime|
                         |XXX2prime|
                         |XXX3prime|
                         |gh0prime|
                         |gh1prime|)))))
(assert (forall ((|XXX0| Real)
         (|XXX1| Real)
         (|XXX2| Real)
         (|XXX3| Real)
         (gh0 Real)
         (gh1 Real)
         (|XXX0prime| Real)
         (|XXX1prime| Real)
         (|XXX2prime| Real)
         (|XXX3prime| Real)
         (|gh1prime| Real)
         (|gh0prime| Real))
  (let ((a!1 (and (= |gh1prime| (- gh1 (+ 0 1)))
                  (> gh1 (+ 0 0))
                  (= |gh0prime| gh0)))
        (a!2 (> |gh1prime| (* (+ 0 (- 1)) |XXX0prime|)))
        (a!3 (> |gh1prime| (* (+ 0 (- 1)) |XXX1prime|)))
        (a!4 (> |gh1prime| (* (+ 0 (- 1)) |XXX2prime|)))
        (a!5 (> |gh1prime| (* (+ 0 (- 1)) |XXX3prime|)))
        (a!6 (+ (* (+ 0 (- 1)) |XXX1prime|) (* (+ 0 1) |XXX2prime|)))
        (a!7 (+ (* (+ 0 (- 1)) |XXX0prime|) (* (+ 0 1) |XXX3prime|)))
        (a!8 (+ (* (+ 0 (- 1)) |XXX0prime|)
                (* (+ 0 1) |XXX1prime|)
                (* (+ 0 (- 1)) |XXX2prime|)))
        (a!9 (+ (* (+ 0 1) |XXX0prime|)
                (* (+ 0 (- 1)) |XXX1prime|)
                (* (+ 0 1) |XXX3prime|)))
        (a!10 (+ (* (+ 0 (- 1)) |XXX0prime|)
                 (* (+ 0 1) |XXX1prime|)
                 (* (+ 0 (- 1)) |XXX2prime|)
                 (* (+ 0 1) |XXX3prime|)))
        (a!11 (+ (* (+ 0 1) |XXX0prime|)
                 (* (+ 0 (- 1)) |XXX1prime|)
                 (* (+ 0 1) |XXX2prime|)
                 (* (+ 0 1) |XXX3prime|)))
        (a!12 (+ (* (+ 0 1) |XXX0prime|)
                 (* (+ 0 (- 1)) |XXX1prime|)
                 (* (+ 0 (- 1)) |XXX2prime|)
                 (* (+ 0 (- 1)) |XXX3prime|)))
        (a!13 (+ (* (+ 0 (- 1)) |XXX1prime|)
                 (* (+ 0 1) |XXX2prime|)
                 (* (+ 0 (- 1)) |XXX3prime|)))
        (a!14 (+ (* (+ 0 (- 1)) |XXX0prime|)
                 (* (+ 0 1) |XXX2prime|)
                 (* (+ 0 (- 1)) |XXX3prime|)))
        (a!15 (+ (* (+ 0 1) |XXX1prime|)
                 (* (+ 0 (- 1)) |XXX2prime|)
                 (* (+ 0 (- 1)) |XXX3prime|)))
        (a!16 (+ (* (+ 0 (- 1)) |XXX0prime|)
                 (* (+ 0 (- 1)) |XXX1prime|)
                 (* (+ 0 1) |XXX2prime|)
                 (+ 0 1)))
        (a!17 (+ (* (+ 0 (- 1)) |XXX0prime|)
                 (* (+ 0 1) |XXX1prime|)
                 (* (+ 0 1) |XXX2prime|)
                 (* (+ 0 (- 1)) |XXX3prime|)
                 (+ 0 1)))
        (a!18 (+ (* (+ 0 (- 1)) |XXX0prime|)
                 (* (+ 0 (- 1)) |XXX1prime|)
                 (* (+ 0 (- 1)) |XXX2prime|)
                 (* (+ 0 (- 1)) |XXX3prime|)
                 (+ 0 1)))
        (a!19 (+ (* (+ 0 (- 1)) |XXX0prime|)
                 (* (+ 0 (- 1)) |XXX1prime|)
                 (* (+ 0 (- 1)) |XXX3prime|)
                 (+ 0 1)))
        (a!20 (+ (* (+ 0 1) |XXX0prime|)
                 (* (+ 0 (- 1)) |XXX1prime|)
                 (* (+ 0 1) |XXX2prime|)
                 (* (+ 0 (- 1)) |XXX3prime|)
                 (+ 0 1)))
        (a!21 (+ (* (+ 0 1) |XXX0prime|)
                 (* (+ 0 1) |XXX1prime|)
                 (* (+ 0 (- 1)) |XXX2prime|)
                 (* (+ 0 1) |XXX3prime|)
                 (+ 0 1)))
        (a!22 (+ (* (+ 0 1) |XXX0prime|)
                 (* (+ 0 1) |XXX1prime|)
                 (* (+ 0 (- 1)) |XXX2prime|)
                 (* (+ 0 (- 1)) |XXX3prime|)
                 (+ 0 1)))
        (a!23 (> |gh1prime|
                 (+ (* (+ 0 1) |XXX0prime|)
                    (* (+ 0 1) |XXX1prime|)
                    (* (+ 0 1) |XXX2prime|)
                    (* (+ 0 1) |XXX3prime|)
                    (+ 0 1))))
        (a!24 (+ (* (+ 0 (- 1)) |XXX0prime|)
                 (* (+ 0 (- 1)) |XXX1prime|)
                 (* (+ 0 1) |XXX2prime|)
                 (* (+ 0 1) |XXX3prime|)
                 (+ 0 1)))
        (a!25 (+ (* (+ 0 1) |XXX0prime|)
                 (* (+ 0 1) |XXX1prime|)
                 (* (+ 0 1) |XXX2prime|)
                 (* (+ 0 (- 1)) |XXX3prime|)
                 (+ 0 1)))
        (a!26 (+ (* (+ 0 (- 1)) |XXX0prime|)
                 (* (+ 0 1) |XXX1prime|)
                 (* (+ 0 1) |XXX2prime|)
                 (* (+ 0 1) |XXX3prime|)
                 (+ 0 1)))
        (a!27 (+ (* (+ 0 (- 1)) |XXX0prime|)
                 (* (+ 0 (- 1)) |XXX1prime|)
                 (* (+ 0 (- 1)) |XXX2prime|)
                 (* (+ 0 1) |XXX3prime|)
                 (+ 0 1))))
  (let ((a!28 (and (= |gh0prime| (- gh0 (+ 0 1)))
                   (> |gh1prime| |XXX0prime|)
                   (> |gh1prime| |XXX1prime|)
                   (> |gh1prime| |XXX2prime|)
                   (> |gh1prime| |XXX3prime|)
                   a!2
                   a!3
                   a!4
                   a!5
                   (<= gh1 (+ 0 0))
                   (> |gh1prime| (+ 0 1))
                   (> |gh1prime| a!6)
                   (> |gh1prime| a!7)
                   (> |gh1prime| a!8)
                   (> |gh1prime| a!9)
                   (> |gh1prime| a!10)
                   (> |gh1prime| a!11)
                   (> |gh1prime| a!12)
                   (> |gh1prime| a!13)
                   (> |gh1prime| a!14)
                   (> |gh1prime| a!15)
                   (> |gh1prime| a!16)
                   (> |gh1prime| a!17)
                   (> |gh1prime| a!18)
                   (> |gh1prime| a!19)
                   (> |gh1prime| a!20)
                   (> |gh1prime| a!21)
                   (> |gh1prime| a!22)
                   a!23
                   (> |gh1prime| a!24)
                   (> |gh1prime| a!25)
                   (> |gh1prime| a!26)
                   (> |gh1prime| a!27))))
  (let ((a!29 (and (starexecinv1 |XXX0|
                                    |XXX1|
                                    |XXX2|
                                    |XXX3|
                                    gh0
                                    gh1)
                   (<= |XXX1| |XXX2|)
                   (<= |XXX0| |XXX3|)
                   (= |XXX0prime| |XXX1|)
                   (= |XXX1prime| (- |XXX0| (+ 0 1)))
                   (= |XXX2prime| |XXX2|)
                   (= |XXX3prime| |XXX3|)
                   (or a!1 a!28)
                   true)))
    (=> a!29
        (starexecinv1 |XXX0prime|
                         |XXX1prime|
                         |XXX2prime|
                         |XXX3prime|
                         |gh0prime|
                         |gh1prime|)))))))
(assert (forall ((|XXX0| Real)
         (|XXX1| Real)
         (|XXX2| Real)
         (|XXX3| Real)
         (gh0 Real)
         (gh1 Real)
         )
  (=> (and (starexecinv1 |XXX0|
                            |XXX1|
                            |XXX2|
                            |XXX3|
                            gh0
                            gh1)
           (<= |XXX1| |XXX2|)
           (<= |XXX0| |XXX3|)
           (< gh0 (+ 0 0))
           true)
      false)))
(check-sat)
